Data path: /scratch/opt/lxu/CFLG/benchmarks/random_B
Instance: r_25_0.3_98.txt
Result path: /scratch/opt/lxu/CFLG/results/random_B
Solver: Gurobi
Time limit: 7200
Formulation: EFP
Cover: Large
julia --project=. src/main.jl /scratch/opt/lxu/CFLG/benchmarks/random_B r_25_0.3_98.txt /scratch/opt/lxu/CFLG/results/random_B Gurobi 7200 EFP Large
The latest version of Julia in the `release` channel is 1.11.6+0.x64.linux.gnu. You currently have `1.11.4+0.x64.linux.gnu` installed. Run:

  juliaup update

in your terminal shell to install Julia 1.11.6+0.x64.linux.gnu and update the `release` channel to that version.
/scratch/opt/lxu/CFLG/benchmarks/random_B Gurobi 7200.0 /scratch/opt/lxu/CFLG/results/random_B r_25_0.3_98.txt EFP Large
/scratch/opt/lxu/CFLG/benchmarks/random_B/r_25_0.3_98.txt

 read graph
data loaded

problem_graph/original graph: node: 25/25 edge: 98/98 dlt: 1.149474872932666 break_avg_len: 0.574737436466333 break_max_len: 0.9903705037781224elapsed CPU time: 0.024601 seconds
Set parameter TokenServer to value "solice01.zib.de"
Set parameter Threads to value 1
Set parameter OutputFlag to value 1
Set parameter MIPGap to value 0.0001
Set parameter TimeLimit to value 7199.975399

 more cuts: false 1.149474872932666 false
is_attach:falseformulation:EFP0 98 25

 model loaded

Gurobi Optimizer version 12.0.1 build v12.0.1rc0 (linux64 - "Debian GNU/Linux 12 (bookworm)")

CPU model: Intel(R) Xeon(R) Gold 5222 CPU @ 3.80GHz, instruction set [SSE2|AVX|AVX2|AVX512]
Thread count: 8 physical cores, 16 logical processors, using up to 1 threads

Non-default parameters:
TimeLimit  7199.975399
Threads  1

Optimize a model with 9843 rows, 4746 columns and 29110 nonzeros
Model fingerprint: 0x6990c536
Variable types: 221 continuous, 4525 integer (4525 binary)
Coefficient statistics:
  Matrix range     [1e-06, 2e+00]
  Objective range  [1e+00, 1e+00]
  Bounds range     [3e-01, 1e+00]
  RHS range        [3e-01, 1e+01]
Found heuristic solution: objective 24.0000000
Presolve removed 2102 rows and 123 columns
Presolve time: 0.07s
Presolved: 7741 rows, 4623 columns, 26800 nonzeros
Variable types: 123 continuous, 4500 integer (4500 binary)

Root relaxation: objective 1.000000e+00, 2271 iterations, 0.06 seconds (0.10 work units)

    Nodes    |    Current Node    |     Objective Bounds      |     Work
 Expl Unexpl |  Obj  Depth IntInf | Incumbent    BestBd   Gap | It/Node Time

     0     0    1.00000    0   60   24.00000    1.00000  95.8%     -    0s
H    0     0                       6.0000000    1.00000  83.3%     -    0s
H    0     0                       4.0000000    1.00000  75.0%     -    0s
     0     0    1.00000    0  110    4.00000    1.00000  75.0%     -    0s
H    0     0                       3.0000000    1.00000  66.7%     -    0s
     0     0    1.00000    0  142    3.00000    1.00000  66.7%     -    1s
     0     0    1.00000    0  117    3.00000    1.00000  66.7%     -    1s
     0     0    1.00000    0  169    3.00000    1.00000  66.7%     -    1s
     0     0    1.00000    0   66    3.00000    1.00000  66.7%     -    2s
     0     0    1.00000    0   63    3.00000    1.00000  66.7%     -    2s
     0     0    1.00000    0   85    3.00000    1.00000  66.7%     -    2s
     0     0    1.00000    0   85    3.00000    1.00000  66.7%     -    2s
     0     2    1.00000    0   62    3.00000    1.00000  66.7%     -    3s
    88    84    2.00000   79   76    3.00000    1.00000  66.7%   275    5s
   498   391    2.00000   12   69    3.00000    1.00000  66.7%   132   10s
   611   454    1.71177   25   85    3.00000    1.00000  66.7%   141   18s
   614   456    2.00000   31  104    3.00000    1.00000  66.7%   140   21s
   619   459    1.00000   36  247    3.00000    1.00000  66.7%   139   25s
   626   464    2.00000   19   40    3.00000    2.00000  33.3%   138   30s
   640   475    2.00000   79   51    3.00000    2.00000  33.3%   287   36s
   650   482    2.00000    6   57    3.00000    2.00000  33.3%   282   40s
   680   486    2.00000   40   85    3.00000    2.00000  33.3%   386   45s
   764   489    2.00000   52   85    3.00000    2.00000  33.3%   400   50s
H  821   404                       2.0000000    2.00000  0.00%   389   52s

Cutting planes:
  Gomory: 1
  Cover: 20
  Clique: 7
  MIR: 10
  StrongCG: 5
  Flow cover: 8
  GUB cover: 5
  Zero half: 2
  Relax-and-lift: 2

Explored 822 nodes (352442 simplex iterations) in 52.32 seconds (67.92 work units)
Thread count was 1 (of 16 available processors)

Solution count 7: 2 3 4 ... 24

Optimal solution found (tolerance 1.00e-04)
Best objective 2.000000000000e+00, best bound 2.000000000000e+00, gap 0.0000%

User-callback calls 15928, time in user-callback 0.02 sec

 sepatime0 0 0
2.0
Stat(MathOptInterface.OPTIMAL, 2.0, 2.0, 0.0, 0.0, 0.024601, 52.31562900543213, 822, Main.CFLG.EFP, "", #undef)
